sing20221114.00
TTAA  64001 48698
99007 24213 02002 00099 23607 30506 92778 22433 25006
85513 18427 27012 70160 10445 21518 50588 05310 12008
40760 15109 08514 30972 29939 09008 25099 40138 11014
20248 53339 15504 15425 69357 08018 10656 87556 09054
88999
77999=
TTCC  6400/ 48698
88918 89950 08062
77874 08064 42061=
TTDD  6400/ 48698
11918 89950 22882 89944 33870 85558 44866 83160 55852 82558
66836 75562 77825 72363 88793 71162 99763 65767 11727 65968
21212 11874 08064 22847 07564 33824 08041 44790 09535 55774
09521 66740 14506 77734 11506 88733 13006 99727 10008=
